DATASET = "thpack2";
INSTANCE = "100";

WIDTH = 233;
HEIGHT = 220;
LENGTH = 587;

NO_OF_SHAPES = 5;
size = [|
  78,49,47 |
  46,45,43 |
  98,44,36 |
  100,89,31 |
  108,76,47 |
|];

verticality = [|
  1,1,1 |
  1,1,1 |
  0,1,1 |
  0,0,1 |
  0,1,1 |
|];

box_count = [
  24,
  25,
  33,
  34,
  23,
];
